7
14
0 30 57 74 82 83 93 94 69 44 17 14 13 1
20
0 19 28 39 38 47 48 70 84 90 56 55 64 73 63 45 37 27 18 9
13
0 42 67 81 75 97 61 52 25 7 6 4 2
12
0 36 29 54 46 72 91 60 71 40 21 10
18
0 20 31 41 51 68 76 92 86 87 89 79 62 53 33 35 23 11
12
0 15 49 66 78 88 98 26 16 8 5 3
16
0 32 80 77 96 95 85 65 58 59 50 43 34 24 22 12
